1292
1434
394
1700
2088
1704
195
905
1731
975
692
1742
933
2202
297
1287
1891
1319
2121
1549
1425
2340
2332
1686
1942
1560
1415
2175
2066
1691
1927
548
869
1673
1161
1098
1673
2017
407
1422
1040
639
284
975
1043
1004
1237
1132
1052
737
